clingo version 5.7.2
Reading from ../axioms/dec_clingo.lp ...
Solving...
Answer: 1 (Time: 0.016s)
happens(feed(fred),1) holdsAt(hungry(fred),0) holdsAt(hungry(fred),1) holdsAt(happy(fred),2)
SATISFIABLE

Models       : 1
Calls        : 1
Time         : 0.017s (Solving: 0.00s 1st Model: 0.00s Unsat: 0.00s)
CPU Time     : 0.005s
